

******************************************************************************
This program contains Ipopt, a library for large-scale nonlinear optimization.
 Ipopt is released as open source code under the Eclipse Public License (EPL).
         For more information visit http://projects.coin-or.org/Ipopt
******************************************************************************

This is Ipopt version 3.12.8, running with linear solver mumps.
NOTE: Other linear solvers might be more efficient (see Ipopt documentation).

Number of nonzeros in equality constraint Jacobian...:        0
Number of nonzeros in inequality constraint Jacobian.:        0
Number of nonzeros in Lagrangian Hessian.............:        3

Total number of variables............................:        2
                     variables with only lower bounds:        0
                variables with lower and upper bounds:        2
                     variables with only upper bounds:        0
Total number of equality constraints.................:        0
Total number of inequality constraints...............:        0
        inequality constraints with only lower bounds:        0
   inequality constraints with lower and upper bounds:        0
        inequality constraints with only upper bounds:        0

iter    objective    inf_pr   inf_du lg(mu)  ||d||  lg(rg) alpha_du alpha_pr  ls
   0  4.5823103e+00 0.00e+00 1.36e+01  -1.0 0.00e+00    -  0.00e+00 0.00e+00   0
   1  3.5086367e+00 0.00e+00 9.43e+00  -1.0 9.01e-02   2.0 1.00e+00 1.00e+00f  1
   2  2.4331298e+00 0.00e+00 5.06e+00  -1.0 1.29e-01   1.5 1.00e+00 1.00e+00f  1
   3 -7.1257417e-02 0.00e+00 3.45e+00  -1.0 6.07e-01   1.0 1.00e+00 1.00e+00f  1
   4 -6.9915374e-01 0.00e+00 1.96e+00  -1.0 7.99e-01    -  1.00e+00 1.00e+00f  1
   5 -9.3088616e-01 0.00e+00 1.26e+00  -1.0 4.71e-01    -  1.00e+00 1.00e+00f  1
   6 -1.0314360e+00 0.00e+00 1.08e-02  -1.0 1.60e-01    -  1.00e+00 1.00e+00f  1
   7 -1.0316283e+00 0.00e+00 7.43e-04  -2.5 4.67e-03    -  1.00e+00 1.00e+00f  1
   8 -1.0316285e+00 0.00e+00 6.67e-07  -3.8 1.40e-04    -  1.00e+00 1.00e+00f  1
   9 -1.0316285e+00 0.00e+00 1.93e-09  -5.7 7.51e-06    -  1.00e+00 1.00e+00f  1
iter    objective    inf_pr   inf_du lg(mu)  ||d||  lg(rg) alpha_du alpha_pr  ls
  10 -1.0316285e+00 0.00e+00 2.95e-13  -8.6 9.31e-08    -  1.00e+00 1.00e+00f  1

Number of Iterations....: 10

                                   (scaled)                 (unscaled)
Objective...............:  -1.0316284534898774e+00   -1.0316284534898774e+00
Dual infeasibility......:   2.9501255727476251e-13    2.9501255727476251e-13
Constraint violation....:   0.0000000000000000e+00    0.0000000000000000e+00
Complementarity.........:   2.5061214875849360e-09    2.5061214875849360e-09
Overall NLP error.......:   2.5061214875849360e-09    2.5061214875849360e-09


Number of objective function evaluations             = 11
Number of objective gradient evaluations             = 11
Number of equality constraint evaluations            = 0
Number of inequality constraint evaluations          = 0
Number of equality constraint Jacobian evaluations   = 0
Number of inequality constraint Jacobian evaluations = 0
Number of Lagrangian Hessian evaluations             = 10
Total CPU secs in IPOPT (w/o function evaluations)   =      0.003
Total CPU secs in NLP function evaluations           =      0.000

EXIT: Optimal Solution Found.
 
Ipopt 3.12.8: Optimal Solution Found
